\* Source Pyomo model name=unknown *\

min 
x221:
+0 ONE_VAR_CONSTANT

s.t.

c_u_x222_:
+1 x101
+1 x102
+1 x103
+1 x104
+1 x105
+1 x106
+1 x107
+1 x108
+1 x109
+1 x110
-20000 x201
<= 0

c_u_x223_:
+1 x111
+1 x112
+1 x113
+1 x114
+1 x115
+1 x116
+1 x117
+1 x118
+1 x119
+1 x120
-20000 x202
<= 0

c_u_x224_:
+1 x121
+1 x122
+1 x123
+1 x124
+1 x125
+1 x126
+1 x127
+1 x128
+1 x129
+1 x130
-20000 x203
<= 0

c_u_x225_:
+1 x131
+1 x132
+1 x133
+1 x134
+1 x135
+1 x136
+1 x137
+1 x138
+1 x139
+1 x140
-20000 x204
<= 0

c_u_x226_:
+1 x141
+1 x142
+1 x143
+1 x144
+1 x145
+1 x146
+1 x147
+1 x148
+1 x149
+1 x150
-20000 x205
<= 0

c_u_x227_:
+1 x151
+1 x152
+1 x153
+1 x154
+1 x155
+1 x156
+1 x157
+1 x158
+1 x159
+1 x160
-20000 x206
<= 0

c_u_x228_:
+1 x161
+1 x162
+1 x163
+1 x164
+1 x165
+1 x166
+1 x167
+1 x168
+1 x169
+1 x170
-20000 x207
<= 0

c_u_x229_:
+1 x171
+1 x172
+1 x173
+1 x174
+1 x175
+1 x176
+1 x177
+1 x178
+1 x179
+1 x180
-20000 x208
<= 0

c_u_x230_:
+1 x181
+1 x182
+1 x183
+1 x184
+1 x185
+1 x186
+1 x187
+1 x188
+1 x189
+1 x190
-20000 x209
<= 0

c_u_x231_:
+1 x191
+1 x192
+1 x193
+1 x194
+1 x195
+1 x196
+1 x197
+1 x198
+1 x199
+1 x200
-20000 x210
<= 0

c_u_x232_:
+1 x1
+1 x10
+1 x2
-100000 x211
+1 x3
+1 x4
+1 x5
+1 x6
+1 x7
+1 x8
+1 x9
<= 0

c_u_x233_:
+1 x11
+1 x12
+1 x13
+1 x14
+1 x15
+1 x16
+1 x17
+1 x18
+1 x19
+1 x20
-100000 x212
<= 0

c_u_x234_:
+1 x21
-100000 x213
+1 x22
+1 x23
+1 x24
+1 x25
+1 x26
+1 x27
+1 x28
+1 x29
+1 x30
<= 0

c_u_x235_:
-100000 x214
+1 x31
+1 x32
+1 x33
+1 x34
+1 x35
+1 x36
+1 x37
+1 x38
+1 x39
+1 x40
<= 0

c_u_x236_:
-100000 x215
+1 x41
+1 x42
+1 x43
+1 x44
+1 x45
+1 x46
+1 x47
+1 x48
+1 x49
+1 x50
<= 0

c_u_x237_:
-100000 x216
+1 x51
+1 x52
+1 x53
+1 x54
+1 x55
+1 x56
+1 x57
+1 x58
+1 x59
+1 x60
<= 0

c_u_x238_:
-100000 x217
+1 x61
+1 x62
+1 x63
+1 x64
+1 x65
+1 x66
+1 x67
+1 x68
+1 x69
+1 x70
<= 0

c_u_x239_:
-100000 x218
+1 x71
+1 x72
+1 x73
+1 x74
+1 x75
+1 x76
+1 x77
+1 x78
+1 x79
+1 x80
<= 0

c_u_x240_:
-100000 x219
+1 x81
+1 x82
+1 x83
+1 x84
+1 x85
+1 x86
+1 x87
+1 x88
+1 x89
+1 x90
<= 0

c_u_x241_:
+1 x100
-100000 x220
+1 x91
+1 x92
+1 x93
+1 x94
+1 x95
+1 x96
+1 x97
+1 x98
+1 x99
<= 0

c_l_x242_:
+1 x101
+1 x102
+1 x103
+1 x104
+1 x105
+1 x106
+1 x107
+1 x108
+1 x109
+1 x110
+1 x111
+1 x112
+1 x113
+1 x114
+1 x115
+1 x116
+1 x117
+1 x118
+1 x119
+1 x120
+1 x121
+1 x122
+1 x123
+1 x124
+1 x125
+1 x126
+1 x127
+1 x128
+1 x129
+1 x130
+1 x131
+1 x132
+1 x133
+1 x134
+1 x135
+1 x136
+1 x137
+1 x138
+1 x139
+1 x140
+1 x141
+1 x142
+1 x143
+1 x144
+1 x145
+1 x146
+1 x147
+1 x148
+1 x149
+1 x150
+1 x151
+1 x152
+1 x153
+1 x154
+1 x155
+1 x156
+1 x157
+1 x158
+1 x159
+1 x160
+1 x161
+1 x162
+1 x163
+1 x164
+1 x165
+1 x166
+1 x167
+1 x168
+1 x169
+1 x170
+1 x171
+1 x172
+1 x173
+1 x174
+1 x175
+1 x176
+1 x177
+1 x178
+1 x179
+1 x180
+1 x181
+1 x182
+1 x183
+1 x184
+1 x185
+1 x186
+1 x187
+1 x188
+1 x189
+1 x190
+1 x191
+1 x192
+1 x193
+1 x194
+1 x195
+1 x196
+1 x197
+1 x198
+1 x199
+1 x200
>= 330.44277697608959

c_u_x243_:
+1 x101
+1 x102
+1 x103
+1 x104
+1 x105
+1 x106
+1 x107
+1 x108
+1 x109
+1 x110
+1 x111
+1 x112
+1 x113
+1 x114
+1 x115
+1 x116
+1 x117
+1 x118
+1 x119
+1 x120
+1 x121
+1 x122
+1 x123
+1 x124
+1 x125
+1 x126
+1 x127
+1 x128
+1 x129
+1 x130
+1 x131
+1 x132
+1 x133
+1 x134
+1 x135
+1 x136
+1 x137
+1 x138
+1 x139
+1 x140
+1 x141
+1 x142
+1 x143
+1 x144
+1 x145
+1 x146
+1 x147
+1 x148
+1 x149
+1 x150
+1 x151
+1 x152
+1 x153
+1 x154
+1 x155
+1 x156
+1 x157
+1 x158
+1 x159
+1 x160
+1 x161
+1 x162
+1 x163
+1 x164
+1 x165
+1 x166
+1 x167
+1 x168
+1 x169
+1 x170
+1 x171
+1 x172
+1 x173
+1 x174
+1 x175
+1 x176
+1 x177
+1 x178
+1 x179
+1 x180
+1 x181
+1 x182
+1 x183
+1 x184
+1 x185
+1 x186
+1 x187
+1 x188
+1 x189
+1 x190
+1 x191
+1 x192
+1 x193
+1 x194
+1 x195
+1 x196
+1 x197
+1 x198
+1 x199
+1 x200
<= 0

c_e_ONE_VAR_CONSTANT: 
ONE_VAR_CONSTANT = 1.0

bounds
   0 <= x1 <= +inf
   0 <= x2 <= +inf
   0 <= x3 <= +inf
   0 <= x4 <= +inf
   0 <= x5 <= +inf
   0 <= x6 <= +inf
   0 <= x7 <= +inf
   0 <= x8 <= +inf
   0 <= x9 <= +inf
   0 <= x10 <= +inf
   0 <= x11 <= +inf
   0 <= x12 <= +inf
   0 <= x13 <= +inf
   0 <= x14 <= +inf
   0 <= x15 <= +inf
   0 <= x16 <= +inf
   0 <= x17 <= +inf
   0 <= x18 <= +inf
   0 <= x19 <= +inf
   0 <= x20 <= +inf
   0 <= x21 <= +inf
   0 <= x22 <= +inf
   0 <= x23 <= +inf
   0 <= x24 <= +inf
   0 <= x25 <= +inf
   0 <= x26 <= +inf
   0 <= x27 <= +inf
   0 <= x28 <= +inf
   0 <= x29 <= +inf
   0 <= x30 <= +inf
   0 <= x31 <= +inf
   0 <= x32 <= +inf
   0 <= x33 <= +inf
   0 <= x34 <= +inf
   0 <= x35 <= +inf
   0 <= x36 <= +inf
   0 <= x37 <= +inf
   0 <= x38 <= +inf
   0 <= x39 <= +inf
   0 <= x40 <= +inf
   0 <= x41 <= +inf
   0 <= x42 <= +inf
   0 <= x43 <= +inf
   0 <= x44 <= +inf
   0 <= x45 <= +inf
   0 <= x46 <= +inf
   0 <= x47 <= +inf
   0 <= x48 <= +inf
   0 <= x49 <= +inf
   0 <= x50 <= +inf
   0 <= x51 <= +inf
   0 <= x52 <= +inf
   0 <= x53 <= +inf
   0 <= x54 <= +inf
   0 <= x55 <= +inf
   0 <= x56 <= +inf
   0 <= x57 <= +inf
   0 <= x58 <= +inf
   0 <= x59 <= +inf
   0 <= x60 <= +inf
   0 <= x61 <= +inf
   0 <= x62 <= +inf
   0 <= x63 <= +inf
   0 <= x64 <= +inf
   0 <= x65 <= +inf
   0 <= x66 <= +inf
   0 <= x67 <= +inf
   0 <= x68 <= +inf
   0 <= x69 <= +inf
   0 <= x70 <= +inf
   0 <= x71 <= +inf
   0 <= x72 <= +inf
   0 <= x73 <= +inf
   0 <= x74 <= +inf
   0 <= x75 <= +inf
   0 <= x76 <= +inf
   0 <= x77 <= +inf
   0 <= x78 <= +inf
   0 <= x79 <= +inf
   0 <= x80 <= +inf
   0 <= x81 <= +inf
   0 <= x82 <= +inf
   0 <= x83 <= +inf
   0 <= x84 <= +inf
   0 <= x85 <= +inf
   0 <= x86 <= +inf
   0 <= x87 <= +inf
   0 <= x88 <= +inf
   0 <= x89 <= +inf
   0 <= x90 <= +inf
   0 <= x91 <= +inf
   0 <= x92 <= +inf
   0 <= x93 <= +inf
   0 <= x94 <= +inf
   0 <= x95 <= +inf
   0 <= x96 <= +inf
   0 <= x97 <= +inf
   0 <= x98 <= +inf
   0 <= x99 <= +inf
   0 <= x100 <= +inf
   0 <= x101 <= +inf
   0 <= x102 <= +inf
   0 <= x103 <= +inf
   0 <= x104 <= +inf
   0 <= x105 <= +inf
   0 <= x106 <= +inf
   0 <= x107 <= +inf
   0 <= x108 <= +inf
   0 <= x109 <= +inf
   0 <= x110 <= +inf
   0 <= x111 <= +inf
   0 <= x112 <= +inf
   0 <= x113 <= +inf
   0 <= x114 <= +inf
   0 <= x115 <= +inf
   0 <= x116 <= +inf
   0 <= x117 <= +inf
   0 <= x118 <= +inf
   0 <= x119 <= +inf
   0 <= x120 <= +inf
   0 <= x121 <= +inf
   0 <= x122 <= +inf
   0 <= x123 <= +inf
   0 <= x124 <= +inf
   0 <= x125 <= +inf
   0 <= x126 <= +inf
   0 <= x127 <= +inf
   0 <= x128 <= +inf
   0 <= x129 <= +inf
   0 <= x130 <= +inf
   0 <= x131 <= +inf
   0 <= x132 <= +inf
   0 <= x133 <= +inf
   0 <= x134 <= +inf
   0 <= x135 <= +inf
   0 <= x136 <= +inf
   0 <= x137 <= +inf
   0 <= x138 <= +inf
   0 <= x139 <= +inf
   0 <= x140 <= +inf
   0 <= x141 <= +inf
   0 <= x142 <= +inf
   0 <= x143 <= +inf
   0 <= x144 <= +inf
   0 <= x145 <= +inf
   0 <= x146 <= +inf
   0 <= x147 <= +inf
   0 <= x148 <= +inf
   0 <= x149 <= +inf
   0 <= x150 <= +inf
   0 <= x151 <= +inf
   0 <= x152 <= +inf
   0 <= x153 <= +inf
   0 <= x154 <= +inf
   0 <= x155 <= +inf
   0 <= x156 <= +inf
   0 <= x157 <= +inf
   0 <= x158 <= +inf
   0 <= x159 <= +inf
   0 <= x160 <= +inf
   0 <= x161 <= +inf
   0 <= x162 <= +inf
   0 <= x163 <= +inf
   0 <= x164 <= +inf
   0 <= x165 <= +inf
   0 <= x166 <= +inf
   0 <= x167 <= +inf
   0 <= x168 <= +inf
   0 <= x169 <= +inf
   0 <= x170 <= +inf
   0 <= x171 <= +inf
   0 <= x172 <= +inf
   0 <= x173 <= +inf
   0 <= x174 <= +inf
   0 <= x175 <= +inf
   0 <= x176 <= +inf
   0 <= x177 <= +inf
   0 <= x178 <= +inf
   0 <= x179 <= +inf
   0 <= x180 <= +inf
   0 <= x181 <= +inf
   0 <= x182 <= +inf
   0 <= x183 <= +inf
   0 <= x184 <= +inf
   0 <= x185 <= +inf
   0 <= x186 <= +inf
   0 <= x187 <= +inf
   0 <= x188 <= +inf
   0 <= x189 <= +inf
   0 <= x190 <= +inf
   0 <= x191 <= +inf
   0 <= x192 <= +inf
   0 <= x193 <= +inf
   0 <= x194 <= +inf
   0 <= x195 <= +inf
   0 <= x196 <= +inf
   0 <= x197 <= +inf
   0 <= x198 <= +inf
   0 <= x199 <= +inf
   0 <= x200 <= +inf
   0 <= x201 <= 1
   0 <= x202 <= 1
   0 <= x203 <= 1
   0 <= x204 <= 1
   0 <= x205 <= 1
   0 <= x206 <= 1
   0 <= x207 <= 1
   0 <= x208 <= 1
   0 <= x209 <= 1
   0 <= x210 <= 1
   0 <= x211 <= 1
   0 <= x212 <= 1
   0 <= x213 <= 1
   0 <= x214 <= 1
   0 <= x215 <= 1
   0 <= x216 <= 1
   0 <= x217 <= 1
   0 <= x218 <= 1
   0 <= x219 <= 1
   0 <= x220 <= 1
binary
  x201
  x202
  x203
  x204
  x205
  x206
  x207
  x208
  x209
  x210
  x211
  x212
  x213
  x214
  x215
  x216
  x217
  x218
  x219
  x220
end
